
Gurobi 10.0.3 (linux64, gurobi_cl) logging started Thu Nov  9 11:51:16 2023

Set parameter Username
Set parameter TimeLimit to value 3600
Set parameter LogFile to value "RCPSP_1281.log"
Set parameter Threads to value 32
Academic license - for non-commercial use only - expires 2024-10-30
Using license file /home/jrivera6/gurobi-licenses/v1003/compute-0-34/gurobi.lic

Gurobi Optimizer version 10.0.3 build v10.0.3rc0 (linux64)
Copyright (c) 2023, Gurobi Optimization, LLC

Read MPS format model from file RCPSP_1281.mps
Reading time = 0.10 seconds
RCPSP_1281: 42975 rows, 17020 columns, 134609 nonzeros

CPU model: Intel(R) Xeon(R) Gold 6130 CPU @ 2.10GHz, instruction set [SSE2|AVX|AVX2|AVX512]
Thread count: 32 physical cores, 32 logical processors, using up to 32 threads

Optimize a model with 42975 rows, 17020 columns and 134609 nonzeros
Model fingerprint: 0x6c6cd6de
Variable types: 92 continuous, 16928 integer (16928 binary)
Coefficient statistics:
  Matrix range     [1e+00, 5e+02]
  Objective range  [1e+00, 1e+00]
  Bounds range     [1e+00, 1e+00]
  RHS range        [1e+00, 5e+02]
Presolve removed 8866 rows and 1991 columns (presolve time = 5s) ...
Presolve removed 8866 rows and 1991 columns (presolve time = 10s) ...
Presolve removed 13944 rows and 3776 columns
Presolve time: 10.33s
Presolved: 29031 rows, 13244 columns, 94452 nonzeros
Variable types: 91 continuous, 13153 integer (13153 binary)

Root simplex log...

Iteration    Objective       Primal Inf.    Dual Inf.      Time
       0    8.2000000e+01   1.043891e+05   0.000000e+00     11s
    4750    8.2000000e+01   0.000000e+00   0.000000e+00     12s

Root relaxation: objective 8.200000e+01, 4750 iterations, 0.85 seconds (0.11 work units)

    Nodes    |    Current Node    |     Objective Bounds      |     Work
 Expl Unexpl |  Obj  Depth IntInf | Incumbent    BestBd   Gap | It/Node Time

     0     0   82.00000    0   99          -   82.00000      -     -   13s
     0     0   85.00000    0   65          -   85.00000      -     -   14s
     0     0   85.62121    0  359          -   85.62121      -     -   30s
     0     0   85.62121    0  335          -   85.62121      -     -   30s
     0     0   86.50000    0  395          -   86.50000      -     -   47s
     0     0   86.50000    0  393          -   86.50000      -     -   47s
     0     0   87.32234    0  430          -   87.32234      -     -   53s
     0     0   87.32234    0  429          -   87.32234      -     -   54s
     0     0   87.32234    0  402          -   87.32234      -     -   54s
     0     0   89.00000    0  472          -   89.00000      -     -   59s
     0     0   89.00000    0  548          -   89.00000      -     -   61s
     0     0   89.00000    0  488          -   89.00000      -     -   64s
     0     0   89.00000    0  637          -   89.00000      -     -   69s
     0     0   89.00000    0  527          -   89.00000      -     -   70s
     0     0   89.00000    0  501          -   89.00000      -     -   70s
     0     0   89.00000    0  605          -   89.00000      -     -   73s
     0     0   89.00000    0  587          -   89.00000      -     -   73s
     0     0   89.00000    0  450          -   89.00000      -     -   76s
     0     0   89.00000    0  444          -   89.00000      -     -   76s
     0     0   89.00000    0  440          -   89.00000      -     -   80s
     0     0   89.00000    0  433          -   89.00000      -     -   80s
     0     0   89.34848    0  592          -   89.34848      -     -   90s
     0     0   89.34848    0  583          -   89.34848      -     -   93s
     0     0   89.34848    0  631          -   89.34848      -     -   95s
     0     0   89.34848    0  533          -   89.34848      -     -   96s
     0     0   89.35205    0  408          -   89.35205      -     -  102s
     0     0   89.35205    0  402          -   89.35205      -     -  103s
     0     0   89.35216    0  400          -   89.35216      -     -  104s
     0     0   89.35216    0  469          -   89.35216      -     -  108s
     0     0   89.35216    0  440          -   89.35216      -     -  108s
     0     0   89.35304    0  442          -   89.35304      -     -  112s
     0     0   89.35304    0  439          -   89.35304      -     -  112s
     0     0   89.35304    0  322          -   89.35304      -     -  114s
     0     0   89.35304    0  326          -   89.35304      -     -  114s
     0     0   89.35304    0  437          -   89.35304      -     -  123s
     0     0   89.35304    0  341          -   89.35304      -     -  123s
H    0     0                     424.0000000   89.35304  78.9%     -  124s
     0     0   89.35304    0  343  424.00000   89.35304  78.9%     -  124s
     0     0   89.35304    0   98  424.00000   89.35304  78.9%     -  167s
     0     0   89.35304    0  395  424.00000   89.35304  78.9%     -  184s
     0     0   89.35304    0  284  424.00000   89.35304  78.9%     -  192s
H    0     0                     360.0000000   89.35304  75.2%     -  194s
     0     0   89.40768    0   68  360.00000   89.40768  75.2%     -  201s
H    0     0                     321.0000000   89.40768  72.1%     -  204s
     0     0   89.40768    0  233  321.00000   89.40768  72.1%     -  207s
     0     0   90.00300    0  290  321.00000   90.00300  72.0%     -  210s
     0     0   90.00300    0  210  321.00000   90.00300  72.0%     -  211s
     0     0   90.00300    0  208  321.00000   90.00300  72.0%     -  211s
     0     0   90.05790    0  480  321.00000   90.05790  71.9%     -  214s
     0     0   90.05790    0  388  321.00000   90.05790  71.9%     -  215s
     0     0   90.07402    0  453  321.00000   90.07402  71.9%     -  219s
     0     0   90.07447    0  318  321.00000   90.07447  71.9%     -  219s
     0     0   90.07447    0  219  321.00000   90.07447  71.9%     -  220s
     0     0   90.07447    0  313  321.00000   90.07447  71.9%     -  220s
H    0     0                     317.0000000   90.07447  71.6%     -  223s
     0     0   90.08100    0  494  317.00000   90.08100  71.6%     -  224s
     0     0   90.08100    0  466  317.00000   90.08100  71.6%     -  224s
H    0     0                     286.0000000   90.08100  68.5%     -  225s
     0     0   90.08100    0  506  286.00000   90.08100  68.5%     -  225s
     0     0   90.08100    0  452  286.00000   90.08100  68.5%     -  225s
     0     0   90.09348    0  509  286.00000   90.09348  68.5%     -  228s
     0     0   90.09348    0  424  286.00000   90.09348  68.5%     -  228s
     0     0   90.09348    0  379  286.00000   90.09348  68.5%     -  229s
     0     0   90.09348    0  361  286.00000   90.09348  68.5%     -  229s
     0     0   90.32260    0  494  286.00000   90.32260  68.4%     -  231s
     0     0   90.32260    0  416  286.00000   90.32260  68.4%     -  231s
     0     0   90.37565    0  402  286.00000   90.37565  68.4%     -  233s
     0     0   90.37565    0  360  286.00000   90.37565  68.4%     -  233s
     0     0   90.38739    0  434  286.00000   90.38739  68.4%     -  234s
     0     0   90.38739    0  422  286.00000   90.38739  68.4%     -  234s
     0     0   90.38739    0  500  286.00000   90.38739  68.4%     -  234s
     0     0   90.38739    0  435  286.00000   90.38739  68.4%     -  235s
     0     0   90.41081    0  470  286.00000   90.41081  68.4%     -  240s
     0     0   90.41081    0  416  286.00000   90.41081  68.4%     -  240s
     0     0   90.41081    0  405  286.00000   90.41081  68.4%     -  241s
     0     0   90.41081    0  580  286.00000   90.41081  68.4%     -  244s
     0     0   90.41081    0  438  286.00000   90.41081  68.4%     -  244s
     0     0   90.41081    0  372  286.00000   90.41081  68.4%     -  250s
     0     0   90.41081    0  350  286.00000   90.41081  68.4%     -  250s
H    0     0                     268.0000000   90.41081  66.3%     -  255s
     0     0   90.41081    0   52  268.00000   90.41081  66.3%     -  256s
     0     0   90.41081    0  220  268.00000   90.41081  66.3%     -  257s
     0     0   90.53571    0  181  268.00000   90.53571  66.2%     -  263s
H    0     0                     257.0000000   90.53571  64.8%     -  274s
H    0     0                     245.0000000   90.53571  63.0%     -  274s
     0     0   90.53571    0  280  245.00000   90.53571  63.0%     -  274s
     0     0   90.53708    0  527  245.00000   90.53708  63.0%     -  276s
H    0     0                     226.0000000   90.53708  59.9%     -  278s
     0     0   90.53708    0  358  226.00000   90.53708  59.9%     -  279s
     0     0   90.53856    0  477  226.00000   90.53856  59.9%     -  281s
     0     0   90.53856    0  393  226.00000   90.53856  59.9%     -  281s
     0     0   90.53856    0  440  226.00000   90.53856  59.9%     -  287s
     0     0   90.53856    0  316  226.00000   90.53856  59.9%     -  287s
     0     0   90.53856    0  432  226.00000   90.53856  59.9%     -  289s
     0     0   90.53856    0  385  226.00000   90.53856  59.9%     -  290s
     0     0   90.53856    0   56  226.00000   90.53856  59.9%     -  301s
H    0     0                     212.0000000   90.53856  57.3%     -  304s
     0     2   90.53856    0   54  212.00000   90.53856  57.3%     -  309s
     1     4   90.82353    1   92  212.00000   90.82353  57.2%  1172  316s
     3     7   91.47405    2  273  212.00000   91.32733  56.9%   702  322s
     7    11   92.00000    3  307  212.00000   92.00000  56.6%   490  330s
    14    22   92.00000    4  246  212.00000   92.00000  56.6%   406  338s
    25    33   92.00000    5  244  212.00000   92.00000  56.6%   420  347s
    47    63   92.00000    6  221  212.00000   92.00000  56.6%   382  356s
H   79    91                     204.0000000   92.00000  54.9%   329  384s
H   87    91                     203.0000000   92.00000  54.7%   319  384s
H   98    91                     200.0000000   92.00000  54.0%   312  385s
   143   148   92.00000    8  407  200.00000   92.00000  54.0%   243  394s
   175   183   92.00000    9  218  200.00000   92.00000  54.0%   204  399s
   214   222   93.00000   10  199  200.00000   92.00000  54.0%   175  403s
   255   258   93.33333   11  200  200.00000   92.00000  54.0%   151  405s
   293   297   93.33333   12  199  200.00000   92.00000  54.0%   135  410s
   332   338   97.33333   13  165  200.00000   92.00000  54.0%   128  416s
   375   376   93.33333   13  265  200.00000   92.00000  54.0%   121  423s
H  419   401                     197.0000000   92.00000  53.3%   114 2154s
   420   401   97.98658   16  552  197.00000   92.00000  53.3%   115 2163s
H  421   401                     196.0000000   92.00000  53.1%   114 2183s
H  422   401                     195.0000000   92.00000  52.8%   114 2190s
H  426   401                     190.0000000   92.00000  51.6%   114 2214s
   430   401  101.00000   21  372  190.00000   92.00000  51.6%   113 2240s
H  441   401                     187.0000000   92.00000  50.8%   111 2270s
   443   401  109.00000   17  202  187.00000   92.00000  50.8%   110 2288s
   444   401  104.00000   18  322  187.00000   92.00000  50.8%   110 2297s
   445   401 infeasible   19       187.00000   92.00000  50.8%   110 2312s
   448   401   97.98658   16  625  187.00000   92.00000  50.8%   110 2388s
   453   449  100.33333   15  381  187.00000   92.00000  50.8%   110 3940s

Cutting planes:
  Gomory: 6
  Cover: 85
  Implied bound: 341
  Clique: 4
  MIR: 415
  StrongCG: 13
  Inf proof: 1
  Zero half: 1
  RLT: 225
  Relax-and-lift: 120

Explored 510 nodes (145549 simplex iterations) in 3966.82 seconds (55.87 work units)
Thread count was 32 (of 32 available processors)

Solution count 10: 187 190 195 ... 226

Time limit reached
Best objective 1.870000000000e+02, best bound 9.200000000000e+01, gap 50.8021%

Wrote result file 'RCPSP_1281.sol'

